% Data file generated from RandomInstances/18_0.85_3.col DIMACS file
size = 18;

chi = 10;

adjacency = [|0,1,1,1,1,1,1,1,0,1,1,1,1,1,1,1,1,0,
|1,0,1,1,1,1,1,1,1,1,1,1,1,1,1,1,1,1,
|1,1,0,1,1,1,1,1,0,1,1,1,1,1,1,1,0,0,
|1,1,1,0,1,1,0,1,1,1,1,1,1,1,1,1,1,1,
|1,1,1,1,0,1,1,0,1,1,1,1,0,1,1,1,1,1,
|1,1,1,1,1,0,1,1,1,1,1,1,1,1,1,0,1,1,
|1,1,1,0,1,1,0,1,1,1,0,1,1,1,1,1,0,1,
|1,1,1,1,0,1,1,0,1,1,1,1,1,1,1,1,1,0,
|0,1,0,1,1,1,1,1,0,1,1,1,1,1,1,1,1,1,
|1,1,1,1,1,1,1,1,1,0,1,1,0,1,0,0,0,1,
|1,1,1,1,1,1,0,1,1,1,0,1,0,1,1,1,1,1,
|1,1,1,1,1,1,1,1,1,1,1,0,1,1,1,1,1,1,
|1,1,1,1,0,1,1,1,1,0,0,1,0,1,1,1,1,1,
|1,1,1,1,1,1,1,1,1,1,1,1,1,0,1,1,0,1,
|1,1,1,1,1,1,1,1,1,0,1,1,1,1,0,1,0,1,
|1,1,1,1,1,0,1,1,1,0,1,1,1,1,1,0,0,0,
|1,1,0,1,1,1,0,1,1,0,1,1,1,0,0,0,0,1,
|0,1,0,1,1,1,1,0,1,1,1,1,1,1,1,0,1,0,
|];